============================[ Problem Statistics ]=============================|                                                                             ||  Number of variables:          4242                                         ||  Number of clauses:            9966                                         ||  Parse time:                   0.36 s                                       ||                                                                             |============================[ Search Statistics ]==============================| Conflicts |          ORIGINAL         |          LEARNT          | Progress ||           |    Vars  Clauses Literals |    Limit  Clauses Lit/Cl |          |===============================================================================|       100 |    1591     6171   565462 |     2262      100     53 | 62.501 % |===============================================================================restarts              : 3conflicts             : 207            (378 /sec)decisions             : 474            (0.00 % random) (867 /sec)propagations          : 11666          (21327 /sec)conflict literals     : 14752          (95.11 % deleted)CPU time              : 0.547 sSATISFIABLE